NAME : in_house_8_19
TYPE : TSP
DIMENSION : 8
EDGE_WEIGHT_TYPE : EXPLICIT
EDGE_WEIGHT_FORMAT : UPPER_ROW
COMMENT : INVERSION_SHIFT=1
EDGE_WEIGHT_SECTION
27
17
38
15
26
60
16
54
10
18
30
18
26
57
57
43
6
52
41
18
14
50
39
9
10
37
17
24
